30 62
28
5 7 4 53
5 14 0 0
8 14 11 28
8 4 3 49
13 21 5 0
11 7 8 21
11 14 19 27
5 14 25 8
5 4 25 4
3 18 11 42
3 21 0 32
11 17 19 45
11 4 19 41
4 7 0 53
4 5 26 22
7 6 18 3
5 18 14 42
5 3 22 0
3 7 5 21
3 5 23 22
4 18 19 9
4 3 18 0
2 12 23 9
2 6 9 53
5 18 0 14
5 21 6 28
3 17 3 32
3 4 27 0
